# Solution for model GasLib-40
# Objective value = 1.0555577886244562e+01
loadshed[innode_1] 0
loadshed[innode_2] 0
loadshed[innode_3] 0
loadshed[innode_4] 0
loadshed[innode_5] 0
loadshed[innode_6] 0
loadshed[innode_7] 0
loadshed[innode_8] 0
loadshed[source_1] -3.1973011501682080e-01
loadshed[source_2] 8.9991939188879821e-02
loadshed[source_3] 2.9650748026967266e-01
loadshed[sink_1] 0
loadshed[sink_2] 0
loadshed[sink_3] 0
loadshed[sink_4] 0
loadshed[sink_5] 0
loadshed[sink_6] 0
loadshed[sink_7] 0
loadshed[sink_8] 0
loadshed[sink_9] 0
loadshed[sink_10] 0
loadshed[sink_11] 0
loadshed[sink_12] 0.645436609604763
loadshed[sink_13] 0
loadshed[sink_14] 0
loadshed[sink_15] 0
loadshed[sink_16] 0
loadshed[sink_17] 0
loadshed[sink_18] 0
loadshed[sink_19] 0
loadshed[sink_20] 0
loadshed[sink_21] 0
loadshed[sink_22] 0
loadshed[sink_23] 0
loadshed[sink_24] 0
loadshed[sink_25] 0
loadshed[sink_26] 0
loadshed[sink_27] 0
loadshed[sink_28] 0
loadshed[sink_29] 0
flow[source_1,sink_3] 2.0863650047470782e+02
flow[innode_1,sink_16] 1.6354166666666970e+01
flow[innode_6,sink_13] 3.2638388079107918e+00
flow[sink_13,sink_14] -1.3090327858755876e+01
flow[sink_14,sink_10] -2.9444494525422670e+01
flow[sink_25,sink_26] 1.7155732113157842e+02
flow[sink_26,sink_9] 1.2181651151526339e+02
flow[sink_9,sink_18] 1.0546234484859671e+02
flow[sink_26,sink_4] 3.3386642949648383e+01
flow[sink_4,sink_20] -1.7187486647420297e+01
flow[sink_18,sink_6] 8.9108178181930043e+01
flow[sink_25,innode_8] -1.7592816714137146e+02
flow[sink_6,sink_7] 4.0045678181929816e+01
flow[sink_6,sink_22] 3.2708333333333641e+01
flow[sink_7,sink_24] 3.8506922113755444e+01
flow[sink_22,sink_1] 1.6354166666666970e+01
flow[sink_24,sink_21] 2.2152755447088772e+01
flow[sink_21,sink_12] 5.7985887804221052e+00
flow[sink_7,sink_5] -1.4815410598492193e+01
flow[sink_5,sink_17] -3.1169577265158637e+01
flow[sink_17,sink_4] -3.4219962930402012e+01
flow[sink_17,sink_8] -1.3303781001423328e+01
flow[sink_3,sink_23] 16.3541666666697
flow[sink_8,sink_20] -2.9657947668089996e+01
flow[sink_25,sink_20] 6.3199600982176946e+01
flow[sink_25,sink_15] -7.8446760446961733e+01
flow[sink_15,sink_29] -1.1115509378031265e+02
flow[sink_29,sink_28] 1.6354166666667879e+01
flow[sink_29,sink_2] 0
flow[sink_2,sink_15] -1.6354166666684250e+01
flow[sink_29,innode_7] -1.4386342711364688e+02
flow[innode_4,sink_19] 42.7804953049077
flow[sink_19,innode_3] 7.8506994525422911e+01
flow[innode_4,innode_5] 6.8434832553848551e+01
flow[sink_27,innode_5] -6.8434832553848551e+01
flow[sink_27,sink_19] 5.2080665887181880e+01
flow[sink_10,sink_11] 3.2708333333333641e+01
flow[sink_10,innode_2] 0
flow[sink_10,innode_3] -7.8506994525422911e+01
flow[innode_6,sink_25] -3.2638388079107918e+00
flow[sink_11,innode_1] 1.6354166666666970e+01
flow[sink_19,innode_2] 0
flow[source_3,innode_4] 1.1121532785875625e+02
flow[source_2,innode_7] 1.4386342711364688e+02
flow[sink_3,innode_8] 1.7592816714137146e+02
pressure[innode_1] 7.4774839587612149e+01
pressure[innode_2] 7.9280103129874874e+01
pressure[innode_3] 7.9106258280451058e+01
pressure[innode_4] 81.01325
pressure[innode_5] 8.0966176913589564e+01
pressure[innode_6] 7.3528424389689647e+01
pressure[innode_7] 81.01325
pressure[innode_8] 8.0315857880945117e+01
pressure[source_1] 81.01325
pressure[source_2] 81.01325
pressure[source_3] 81.01325
pressure[sink_1] 4.5858237152243568e+01
pressure[sink_2] 73.8555748683272
pressure[sink_3] 8.0315857880945117e+01
pressure[sink_4] 5.7200878819312429e+01
pressure[sink_5] 5.3571196466873566e+01
pressure[sink_6] 4.7959314762630939e+01
pressure[sink_7] 4.7409583055642671e+01
pressure[sink_8] 5.6395090892509131e+01
pressure[sink_9] 5.4154710398469973e+01
pressure[sink_10] 74.9265408952157
pressure[sink_11] 7.4774839587612149e+01
pressure[sink_12] 1.0132500000000002e+00
pressure[sink_13] 7.3510431391779775e+01
pressure[sink_14] 7.3533857648532390e+01
pressure[sink_15] 7.3908967618093641e+01
pressure[sink_16] 7.3753189752794469e+01
pressure[sink_17] 5.5893104672952290e+01
pressure[sink_18] 5.0338768430001068e+01
pressure[sink_19] 7.9280103129874874e+01
pressure[sink_20] 5.8461832757218410e+01
pressure[sink_21] 3.0767052460743161e+00
pressure[sink_22] 4.6922006294598575e+01
pressure[sink_23] 8.0151139869285331e+01
pressure[sink_24] 3.3220264302863129e+00
pressure[sink_25] 7.3528424389689647e+01
pressure[sink_26] 6.1445743012420110e+01
pressure[sink_27] 8.0398294257366345e+01
pressure[sink_28] 7.6870184635420983e+01
pressure[sink_29] 7.7165466909038159e+01
interdiction[source_1,sink_3] 0
interdiction[innode_1,sink_16] 0
interdiction[innode_6,sink_13] 0
interdiction[sink_13,sink_14] 0
interdiction[sink_14,sink_10] 0
interdiction[sink_25,sink_26] 0
interdiction[sink_26,sink_9] 0
interdiction[sink_9,sink_18] 0
interdiction[sink_26,sink_4] 0
interdiction[sink_4,sink_20] 0
interdiction[sink_18,sink_6] 0
interdiction[sink_25,innode_8] 0
interdiction[sink_6,sink_7] 0
interdiction[sink_6,sink_22] 0
interdiction[sink_7,sink_24] 0
interdiction[sink_22,sink_1] 0
interdiction[sink_24,sink_21] 0
interdiction[sink_21,sink_12] 0
interdiction[sink_7,sink_5] 0
interdiction[sink_5,sink_17] 0
interdiction[sink_17,sink_4] 0
interdiction[sink_17,sink_8] 0
interdiction[sink_3,sink_23] 0
interdiction[sink_8,sink_20] 0
interdiction[sink_25,sink_20] 0
interdiction[sink_25,sink_15] 0
interdiction[sink_15,sink_29] 0
interdiction[sink_29,sink_28] 0
interdiction[sink_29,sink_2] 1
interdiction[sink_2,sink_15] 0
interdiction[sink_29,innode_7] 0
interdiction[innode_4,sink_19] 0
interdiction[sink_19,innode_3] 0
interdiction[innode_4,innode_5] 0
interdiction[sink_27,innode_5] 0
interdiction[sink_27,sink_19] 0
interdiction[sink_10,sink_11] 0
interdiction[sink_10,innode_2] 1
interdiction[sink_10,innode_3] 0
interdiction[innode_6,sink_25] 0
interdiction[sink_11,innode_1] 0
interdiction[sink_19,innode_2] 0
interdiction[source_3,innode_4] 0
interdiction[source_2,innode_7] 0
interdiction[sink_3,innode_8] 0
WCcheckFlow[source_1,sink_3] 39
WCcheckFlow[innode_1,sink_16] 1
WCcheckFlow[innode_6,sink_13] 13
WCcheckFlow[sink_13,sink_14] 12
WCcheckFlow[sink_14,sink_10] 11
WCcheckFlow[sink_25,sink_26] 15
WCcheckFlow[sink_26,sink_9] 12
WCcheckFlow[sink_9,sink_18] 11
WCcheckFlow[sink_26,sink_4] 2
WCcheckFlow[sink_4,sink_20] 1
WCcheckFlow[sink_18,sink_6] 10
WCcheckFlow[sink_25,innode_8] -36
WCcheckFlow[sink_6,sink_7] 7
WCcheckFlow[sink_6,sink_22] 2
WCcheckFlow[sink_7,sink_24] 3
WCcheckFlow[sink_22,sink_1] 1
WCcheckFlow[sink_24,sink_21] 2
WCcheckFlow[sink_21,sink_12] 1
WCcheckFlow[sink_7,sink_5] 3
WCcheckFlow[sink_5,sink_17] 2
WCcheckFlow[sink_17,sink_4] 0
WCcheckFlow[sink_17,sink_8] 1
WCcheckFlow[sink_3,sink_23] 1
WCcheckFlow[sink_8,sink_20] 0
WCcheckFlow[sink_25,sink_20] 0
WCcheckFlow[sink_25,sink_15] 6
WCcheckFlow[sink_15,sink_29] 4
WCcheckFlow[sink_29,sink_28] 1
WCcheckFlow[sink_29,sink_2] 0
WCcheckFlow[sink_2,sink_15] -1
WCcheckFlow[sink_29,innode_7] 2
WCcheckFlow[innode_4,sink_19] -4
WCcheckFlow[sink_19,innode_3] -6
WCcheckFlow[innode_4,innode_5] 2
WCcheckFlow[sink_27,innode_5] -1
WCcheckFlow[sink_27,sink_19] 0
WCcheckFlow[sink_10,sink_11] 3
WCcheckFlow[sink_10,innode_2] 0
WCcheckFlow[sink_10,innode_3] 7
WCcheckFlow[innode_6,sink_25] -14
WCcheckFlow[sink_11,innode_1] 2
WCcheckFlow[sink_19,innode_2] 1
WCcheckFlow[source_3,innode_4] -1
WCcheckFlow[source_2,innode_7] -1
WCcheckFlow[sink_3,innode_8] 37
